1
0
100
0
1 1 1
300 53 384
 2.557876e+14
 2.585162e+14
 2.612448e+14
 2.640023e+14
 2.667888e+14
 2.696047e+14
 2.724504e+14
 2.753261e+14
 2.782321e+14
 2.811688e+14
 2.841366e+14
 2.871356e+14
 2.901663e+14
 2.932290e+14
 2.963240e+14
 2.994517e+14
 3.026123e+14
 3.058064e+14
 3.090342e+14
 3.122960e+14
 3.155923e+14
 3.189233e+14
 3.222895e+14
 3.256913e+14
 3.291289e+14
 3.326028e+14
 3.361134e+14
 3.396611e+14
 3.432462e+14
 3.468691e+14
 3.505303e+14
 3.542301e+14
 3.579690e+14
 3.617473e+14
 3.655655e+14
 3.694241e+14
 3.733233e+14
 3.772637e+14
 3.812457e+14
 3.852697e+14
 3.893362e+14
 3.934456e+14
 3.975984e+14
 4.017950e+14
 4.060359e+14
 4.103216e+14
 4.146525e+14
 4.190292e+14
 4.234520e+14
 4.279215e+14
 4.324382e+14
 4.370025e+14
 4.416150e+14
 4.462763e+14
 4.509867e+14
 4.557468e+14
 4.605572e+14
 4.654183e+14
 4.703308e+14
 4.752951e+14
 4.803118e+14
 4.853814e+14
 4.905046e+14
 4.956818e+14
 5.009137e+14
 5.062008e+14
 5.115437e+14
 5.169430e+14
 5.223993e+14
 5.279132e+14
 5.334853e+14
 5.391162e+14
 5.448065e+14
 5.505569e+14
 5.563680e+14
 5.622404e+14
 5.681748e+14
 5.741719e+14
 5.802322e+14
 5.863565e+14
 5.925455e+14
 5.987998e+14
 6.051200e+14
 6.115070e+14
 6.179614e+14
 6.244840e+14
 6.310754e+14
 6.377363e+14
 6.444676e+14
 6.512699e+14
 6.581440e+14
 6.650906e+14
 6.721106e+14
 6.792047e+14
 6.863737e+14
 6.936183e+14
 7.009394e+14
 7.083377e+14
 7.158142e+14
 7.233695e+14
 7.310047e+14
 7.387204e+14
 7.465175e+14
 7.543969e+14
 7.623595e+14
 7.704062e+14
 7.785378e+14
 7.867552e+14
 7.950593e+14
 8.034511e+14
 8.119315e+14
 8.205013e+14
 8.291617e+14
 8.379134e+14
 8.467575e+14
 8.556950e+14
 8.647268e+14
 8.738539e+14
 8.830774e+14
 8.923982e+14
 9.018174e+14
 9.113360e+14
 9.209551e+14
 9.306757e+14
 9.404989e+14
 9.504258e+14
 9.604575e+14
 9.705950e+14
 9.808396e+14
 9.911923e+14
 1.001654e+15
 1.012227e+15
 1.022911e+15
 1.033707e+15
 1.044618e+15
 1.055644e+15
 1.066786e+15
 1.078046e+15
 1.089425e+15
 1.100923e+15
 1.112544e+15
 1.124286e+15
 1.136153e+15
 1.148145e+15
 1.160264e+15
 1.172510e+15
 1.184886e+15
 1.197392e+15
 1.210031e+15
 1.222803e+15
 1.235709e+15
 1.248752e+15
 1.261932e+15
 1.275252e+15
 1.288712e+15
 1.302315e+15
 1.316060e+15
 1.329951e+15
 1.343989e+15
 1.358175e+15
 1.372510e+15
 1.386997e+15
 1.401636e+15
 1.416430e+15
 1.431381e+15
 1.446489e+15
 1.461757e+15
 1.477185e+15
 1.492777e+15
 1.508533e+15
 1.524455e+15
 1.540546e+15
 1.556806e+15
 1.573238e+15
 1.589844e+15
 1.606624e+15
 1.623582e+15
 1.640719e+15
 1.658037e+15
 1.675537e+15
 1.693222e+15
 1.711094e+15
 1.729154e+15
 1.747406e+15
 1.765849e+15
 1.784488e+15
 1.803323e+15
 1.822357e+15
 1.841592e+15
 1.861029e+15
 1.880673e+15
 1.900523e+15
 1.920583e+15
 1.940854e+15
 1.961340e+15
 1.982042e+15
 2.002962e+15
 2.024103e+15
 2.045467e+15
 2.067057e+15
 2.088875e+15
 2.110923e+15
 2.133203e+15
 2.155719e+15
 2.178473e+15
 2.201466e+15
 2.224702e+15
 2.248184e+15
 2.271913e+15
 2.295893e+15
 2.320126e+15
 2.344615e+15
 2.369362e+15
 2.394371e+15
 2.419643e+15
 2.445182e+15
 2.470991e+15
 2.497072e+15
 2.523429e+15
 2.550063e+15
 2.576979e+15
 2.604179e+15
 2.631666e+15
 2.659443e+15
 2.687513e+15
 2.715879e+15
 2.744545e+15
 2.773514e+15
 2.802788e+15
 2.832371e+15
 2.862267e+15
 2.892478e+15
 2.923008e+15
 2.953860e+15
 2.985037e+15
 3.016544e+15
 3.048384e+15
 3.080559e+15
 3.113074e+15
 3.145932e+15
 3.179137e+15
 3.212693e+15
 3.246603e+15
 3.280870e+15
 3.315500e+15
 3.350495e+15
 3.385859e+15
 3.421596e+15
 3.457711e+15
 3.494207e+15
 3.531088e+15
 3.568358e+15
 3.606022e+15
 3.644083e+15
 3.682546e+15
 3.721415e+15
 3.760695e+15
 3.800388e+15
 3.840501e+15
 3.881038e+15
 3.922002e+15
 3.963398e+15
 4.005231e+15
 4.047506e+15
 4.090227e+15
 4.133399e+15
 4.177027e+15
 4.221115e+15
 4.265669e+15
 4.310693e+15
 4.356192e+15
 4.402171e+15
 4.448636e+15
 4.495591e+15
 4.543041e+15
 4.590993e+15
 4.639450e+15
 4.688419e+15
 4.737905e+15
 4.787913e+15
 4.838450e+15
 4.889519e+15
 4.941128e+15
 4.993281e+15
 5.045984e+15
 5.099244e+15
 5.153067e+15
 5.207457e+15
 5.262421e+15
 5.317966e+15
 5.374096e+15
 5.430819e+15
 5.488141e+15
 5.546068e+15
 5.604607e+15
 5.663763e+15
 5.723543e+15
 5.783955e+15
 5.845004e+15
 5.906698e+15
 5.968391e+15
 1.0952801728e+00
 1.1101400526e+00
 1.1249999324e+00
 1.1398598122e+00
 1.1547196920e+00
 1.1695795719e+00
 1.1844394517e+00
 1.1992993315e+00
 1.2141592113e+00
 1.2290190911e+00
 1.2438789709e+00
 1.2587388507e+00
 1.2735987305e+00
 1.2884586104e+00
 1.3033184902e+00
 1.3181783700e+00
 1.3330382498e+00
 1.3478981296e+00
 1.3627580094e+00
 1.3776178892e+00
 1.3924777690e+00
 1.4073376489e+00
 1.4221975287e+00
 1.4370574085e+00
 1.4519172883e+00
 1.4667771681e+00
 1.4816370479e+00
 1.4964969277e+00
 1.5113568075e+00
 1.5262166874e+00
 1.5336466273e+00
 1.5410765672e+00
 1.5485065071e+00
 1.5522214770e+00
 1.5559364470e+00
 1.5596514169e+00
 1.5615089019e+00
 1.5633663869e+00
 1.5652238719e+00
 1.5661526144e+00
 1.5670813568e+00
 1.5680100993e+00
 1.5684744706e+00
 1.5689388418e+00
 1.5694032131e+00
 1.5696353987e+00
 1.5698675843e+00
 1.5700997699e+00
 1.5702158627e+00
 1.5703319556e+00
 1.5704480484e+00
 1.5705641412e+00
 1.5706802340e+00
 1.5707963268e+00
 0.000000e+00
 1.636246e-02
 3.272492e-02
 4.908739e-02
 6.544985e-02
 8.181231e-02
 9.817477e-02
 1.145372e-01
 1.308997e-01
 1.472622e-01
 1.636246e-01
 1.799871e-01
 1.963495e-01
 2.127120e-01
 2.290745e-01
 2.454369e-01
 2.617994e-01
 2.781618e-01
 2.945243e-01
 3.108868e-01
 3.272492e-01
 3.436117e-01
 3.599742e-01
 3.763366e-01
 3.926991e-01
 4.090615e-01
 4.254240e-01
 4.417865e-01
 4.581489e-01
 4.745114e-01
 4.908739e-01
 5.072363e-01
 5.235988e-01
 5.399612e-01
 5.563237e-01
 5.726862e-01
 5.890486e-01
 6.054111e-01
 6.217735e-01
 6.381360e-01
 6.544985e-01
 6.708609e-01
 6.872234e-01
 7.035859e-01
 7.199483e-01
 7.363108e-01
 7.526732e-01
 7.690357e-01
 7.853982e-01
 8.017606e-01
 8.181231e-01
 8.344855e-01
 8.508480e-01
 8.672105e-01
 8.835729e-01
 8.999354e-01
 9.162979e-01
 9.326603e-01
 9.490228e-01
 9.653852e-01
 9.817477e-01
 9.981102e-01
 1.014473e+00
 1.030835e+00
 1.047198e+00
 1.063560e+00
 1.079922e+00
 1.096285e+00
 1.112647e+00
 1.129010e+00
 1.145372e+00
 1.161735e+00
 1.178097e+00
 1.194460e+00
 1.210822e+00
 1.227185e+00
 1.243547e+00
 1.259910e+00
 1.276272e+00
 1.292634e+00
 1.308997e+00
 1.325359e+00
 1.341722e+00
 1.358084e+00
 1.374447e+00
 1.390809e+00
 1.407172e+00
 1.423534e+00
 1.439897e+00
 1.456259e+00
 1.472622e+00
 1.488984e+00
 1.505346e+00
 1.521709e+00
 1.538071e+00
 1.554434e+00
 1.570796e+00
 1.587159e+00
 1.603521e+00
 1.619884e+00
 1.636246e+00
 1.652609e+00
 1.668971e+00
 1.685334e+00
 1.701696e+00
 1.718058e+00
 1.734421e+00
 1.750783e+00
 1.767146e+00
 1.783508e+00
 1.799871e+00
 1.816233e+00
 1.832596e+00
 1.848958e+00
 1.865321e+00
 1.881683e+00
 1.898046e+00
 1.914408e+00
 1.930770e+00
 1.947133e+00
 1.963495e+00
 1.979858e+00
 1.996220e+00
 2.012583e+00
 2.028945e+00
 2.045308e+00
 2.061670e+00
 2.078033e+00
 2.094395e+00
 2.110758e+00
 2.127120e+00
 2.143482e+00
 2.159845e+00
 2.176207e+00
 2.192570e+00
 2.208932e+00
 2.225295e+00
 2.241657e+00
 2.258020e+00
 2.274382e+00
 2.290745e+00
 2.307107e+00
 2.323470e+00
 2.339832e+00
 2.356194e+00
 2.372557e+00
 2.388919e+00
 2.405282e+00
 2.421644e+00
 2.438007e+00
 2.454369e+00
 2.470732e+00
 2.487094e+00
 2.503457e+00
 2.519819e+00
 2.536182e+00
 2.552544e+00
 2.568906e+00
 2.585269e+00
 2.601631e+00
 2.617994e+00
 2.634356e+00
 2.650719e+00
 2.667081e+00
 2.683444e+00
 2.699806e+00
 2.716169e+00
 2.732531e+00
 2.748894e+00
 2.765256e+00
 2.781618e+00
 2.797981e+00
 2.814343e+00
 2.830706e+00
 2.847068e+00
 2.863431e+00
 2.879793e+00
 2.896156e+00
 2.912518e+00
 2.928881e+00
 2.945243e+00
 2.961606e+00
 2.977968e+00
 2.994330e+00
 3.010693e+00
 3.027055e+00
 3.043418e+00
 3.059780e+00
 3.076143e+00
 3.092505e+00
 3.108868e+00
 3.125230e+00
 3.141593e+00
 3.157955e+00
 3.174318e+00
 3.190680e+00
 3.207043e+00
 3.223405e+00
 3.239767e+00
 3.256130e+00
 3.272492e+00
 3.288855e+00
 3.305217e+00
 3.321580e+00
 3.337942e+00
 3.354305e+00
 3.370667e+00
 3.387030e+00
 3.403392e+00
 3.419755e+00
 3.436117e+00
 3.452479e+00
 3.468842e+00
 3.485204e+00
 3.501567e+00
 3.517929e+00
 3.534292e+00
 3.550654e+00
 3.567017e+00
 3.583379e+00
 3.599742e+00
 3.616104e+00
 3.632467e+00
 3.648829e+00
 3.665191e+00
 3.681554e+00
 3.697916e+00
 3.714279e+00
 3.730641e+00
 3.747004e+00
 3.763366e+00
 3.779729e+00
 3.796091e+00
 3.812454e+00
 3.828816e+00
 3.845179e+00
 3.861541e+00
 3.877903e+00
 3.894266e+00
 3.910628e+00
 3.926991e+00
 3.943353e+00
 3.959716e+00
 3.976078e+00
 3.992441e+00
 4.008803e+00
 4.025166e+00
 4.041528e+00
 4.057891e+00
 4.074253e+00
 4.090615e+00
 4.106978e+00
 4.123340e+00
 4.139703e+00
 4.156065e+00
 4.172428e+00
 4.188790e+00
 4.205153e+00
 4.221515e+00
 4.237878e+00
 4.254240e+00
 4.270603e+00
 4.286965e+00
 4.303327e+00
 4.319690e+00
 4.336052e+00
 4.352415e+00
 4.368777e+00
 4.385140e+00
 4.401502e+00
 4.417865e+00
 4.434227e+00
 4.450590e+00
 4.466952e+00
 4.483315e+00
 4.499677e+00
 4.516039e+00
 4.532402e+00
 4.548764e+00
 4.565127e+00
 4.581489e+00
 4.597852e+00
 4.614214e+00
 4.630577e+00
 4.646939e+00
 4.663302e+00
 4.679664e+00
 4.696027e+00
 4.712389e+00
 4.728751e+00
 4.745114e+00
 4.761476e+00
 4.777839e+00
 4.794201e+00
 4.810564e+00
 4.826926e+00
 4.843289e+00
 4.859651e+00
 4.876014e+00
 4.892376e+00
 4.908739e+00
 4.925101e+00
 4.941463e+00
 4.957826e+00
 4.974188e+00
 4.990551e+00
 5.006913e+00
 5.023276e+00
 5.039638e+00
 5.056001e+00
 5.072363e+00
 5.088726e+00
 5.105088e+00
 5.121451e+00
 5.137813e+00
 5.154175e+00
 5.170538e+00
 5.186900e+00
 5.203263e+00
 5.219625e+00
 5.235988e+00
 5.252350e+00
 5.268713e+00
 5.285075e+00
 5.301438e+00
 5.317800e+00
 5.334163e+00
 5.350525e+00
 5.366887e+00
 5.383250e+00
 5.399612e+00
 5.415975e+00
 5.432337e+00
 5.448700e+00
 5.465062e+00
 5.481425e+00
 5.497787e+00
 5.514150e+00
 5.530512e+00
 5.546875e+00
 5.563237e+00
 5.579599e+00
 5.595962e+00
 5.612324e+00
 5.628687e+00
 5.645049e+00
 5.661412e+00
 5.677774e+00
 5.694137e+00
 5.710499e+00
 5.726862e+00
 5.743224e+00
 5.759587e+00
 5.775949e+00
 5.792311e+00
 5.808674e+00
 5.825036e+00
 5.841399e+00
 5.857761e+00
 5.874124e+00
 5.890486e+00
 5.906849e+00
 5.923211e+00
 5.939574e+00
 5.955936e+00
 5.972299e+00
 5.988661e+00
 6.005023e+00
 6.021386e+00
 6.037748e+00
 6.054111e+00
 6.070473e+00
 6.086836e+00
 6.103198e+00
 6.119561e+00
 6.135923e+00
 6.152286e+00
 6.168648e+00
 6.185011e+00
 6.201373e+00
 6.217735e+00
 6.234098e+00
 6.250460e+00
 6.266823e+00
 6.283185e+00
